100 1000
27 75
21 64
14 68
82 18
36 83
94 55
88 60
71 10
86 18
69 83
75 53
60 87
74 80
16 14
38 92
49 18
24 67
68 22
87 64
85 15
32 80
70 33
37 79
36 81
65 43
29 93
91 74
6 48
54 74
13 72
78 70
70 94
95 98
2 57
38 75
84 98
30 4
44 46
85 9
75 80
39 18
24 96
42 78
76 96
15 24
53 14
68 37
78 50
75 52
24 66
53 63
84 27
34 30
99 50
32 88
22 63
5 100
80 68
39 50
92 61
34 55
59 63
17 47
41 95
17 52
19 40
28 65
57 43
31 69
1 34
21 46
44 26
47 45
71 18
28 94
9 93
15 67
71 3
36 34
24 79
36 60
81 67
33 48
40 65
69 4
65 9
68 28
73 10
4 49
19 77
1 98
11 47
50 56
13 11
78 23
93 4
34 70
60 28
41 95
35 21
